p cnf 386 460
12 -5 -9 21 22 0
12 -5 -9 21 -22 0
12 -5 -9 -21 23 0
12 -5 -9 -21 -23 0
13 20 -11 24 25 0
13 20 -11 24 -25 0
13 20 -11 -24 26 0
13 20 -11 -24 -26 0
-6 -4 10 27 28 0
-6 -4 10 27 -28 0
-6 -4 10 -27 29 0
-6 -4 10 -27 -29 0
-4 17 2 30 31 0
-4 17 2 30 -31 0
-4 17 2 -30 32 0
-4 17 2 -30 -32 0
-1 2 14 33 34 0
-1 2 14 33 -34 0
-1 2 14 -33 35 0
-1 2 14 -33 -35 0
3 14 11 36 37 0
3 14 11 36 -37 0
3 14 11 -36 38 0
3 14 11 -36 -38 0
-20 -17 -8 39 40 0
-20 -17 -8 39 -40 0
-20 -17 -8 -39 41 0
-20 -17 -8 -39 -41 0
4 2 3 42 43 0
4 2 3 42 -43 0
4 2 3 -42 44 0
4 2 3 -42 -44 0
-6 20 -9 45 46 0
-6 20 -9 45 -46 0
-6 20 -9 -45 47 0
-6 20 -9 -45 -47 0
-18 10 -15 48 49 0
-18 10 -15 48 -49 0
-18 10 -15 -48 50 0
-18 10 -15 -48 -50 0
17 9 -13 51 52 0
17 9 -13 51 -52 0
17 9 -13 -51 53 0
17 9 -13 -51 -53 0
-10 9 16 54 55 0
-10 9 16 54 -55 0
-10 9 16 -54 56 0
-10 9 16 -54 -56 0
-9 -13 -12 57 58 0
-9 -13 -12 57 -58 0
-9 -13 -12 -57 59 0
-9 -13 -12 -57 -59 0
-20 -10 -6 60 61 0
-20 -10 -6 60 -61 0
-20 -10 -6 -60 62 0
-20 -10 -6 -60 -62 0
16 -9 -13 63 64 0
16 -9 -13 63 -64 0
16 -9 -13 -63 65 0
16 -9 -13 -63 -65 0
3 -4 5 66 67 0
3 -4 5 66 -67 0
3 -4 5 -66 68 0
3 -4 5 -66 -68 0
19 2 15 69 70 0
19 2 15 69 -70 0
19 2 15 -69 71 0
19 2 15 -69 -71 0
-2 14 -15 72 73 0
-2 14 -15 72 -73 0
-2 14 -15 -72 74 0
-2 14 -15 -72 -74 0
-16 -15 -19 75 76 0
-16 -15 -19 75 -76 0
-16 -15 -19 -75 77 0
-16 -15 -19 -75 -77 0
-9 2 -16 78 79 0
-9 2 -16 78 -79 0
-9 2 -16 -78 80 0
-9 2 -16 -78 -80 0
-20 5 8 81 82 0
-20 5 8 81 -82 0
-20 5 8 -81 83 0
-20 5 8 -81 -83 0
14 -7 1 84 85 0
14 -7 1 84 -85 0
14 -7 1 -84 86 0
14 -7 1 -84 -86 0
6 5 -19 87 88 0
6 5 -19 87 -88 0
6 5 -19 -87 89 0
6 5 -19 -87 -89 0
-17 -3 9 90 91 0
-17 -3 9 90 -91 0
-17 -3 9 -90 92 0
-17 -3 9 -90 -92 0
-19 -17 -14 93 94 0
-19 -17 -14 93 -94 0
-19 -17 -14 -93 95 0
-19 -17 -14 -93 -95 0
-12 13 20 96 97 0
-12 13 20 96 -97 0
-12 13 20 -96 98 0
-12 13 20 -96 -98 0
5 20 13 99 100 0
5 20 13 99 -100 0
5 20 13 -99 101 0
5 20 13 -99 -101 0
9 -8 -7 102 103 0
9 -8 -7 102 -103 0
9 -8 -7 -102 104 0
9 -8 -7 -102 -104 0
-6 -1 -7 105 106 0
-6 -1 -7 105 -106 0
-6 -1 -7 -105 107 0
-6 -1 -7 -105 -107 0
15 14 -6 108 109 0
15 14 -6 108 -109 0
15 14 -6 -108 110 0
15 14 -6 -108 -110 0
1 19 20 111 112 0
1 19 20 111 -112 0
1 19 20 -111 113 0
1 19 20 -111 -113 0
3 19 -9 114 115 0
3 19 -9 114 -115 0
3 19 -9 -114 116 0
3 19 -9 -114 -116 0
14 12 4 117 118 0
14 12 4 117 -118 0
14 12 4 -117 119 0
14 12 4 -117 -119 0
9 10 -8 120 121 0
9 10 -8 120 -121 0
9 10 -8 -120 122 0
9 10 -8 -120 -122 0
20 19 5 123 124 0
20 19 5 123 -124 0
20 19 5 -123 125 0
20 19 5 -123 -125 0
9 4 -8 126 127 0
9 4 -8 126 -127 0
9 4 -8 -126 128 0
9 4 -8 -126 -128 0
-10 -9 -20 129 130 0
-10 -9 -20 129 -130 0
-10 -9 -20 -129 131 0
-10 -9 -20 -129 -131 0
-8 -3 -19 132 133 0
-8 -3 -19 132 -133 0
-8 -3 -19 -132 134 0
-8 -3 -19 -132 -134 0
19 2 7 135 136 0
19 2 7 135 -136 0
19 2 7 -135 137 0
19 2 7 -135 -137 0
2 -7 -11 138 139 0
2 -7 -11 138 -139 0
2 -7 -11 -138 140 0
2 -7 -11 -138 -140 0
18 14 19 141 142 0
18 14 19 141 -142 0
18 14 19 -141 143 0
18 14 19 -141 -143 0
17 10 -16 144 145 0
17 10 -16 144 -145 0
17 10 -16 -144 146 0
17 10 -16 -144 -146 0
13 11 10 147 148 0
13 11 10 147 -148 0
13 11 10 -147 149 0
13 11 10 -147 -149 0
1 -4 16 150 151 0
1 -4 16 150 -151 0
1 -4 16 -150 152 0
1 -4 16 -150 -152 0
-5 18 12 153 154 0
-5 18 12 153 -154 0
-5 18 12 -153 155 0
-5 18 12 -153 -155 0
-13 3 -6 156 157 0
-13 3 -6 156 -157 0
-13 3 -6 -156 158 0
-13 3 -6 -156 -158 0
-15 -13 -10 159 160 0
-15 -13 -10 159 -160 0
-15 -13 -10 -159 161 0
-15 -13 -10 -159 -161 0
-2 -10 8 162 163 0
-2 -10 8 162 -163 0
-2 -10 8 -162 164 0
-2 -10 8 -162 -164 0
-1 -12 14 165 166 0
-1 -12 14 165 -166 0
-1 -12 14 -165 167 0
-1 -12 14 -165 -167 0
18 -20 -3 168 169 0
18 -20 -3 168 -169 0
18 -20 -3 -168 170 0
18 -20 -3 -168 -170 0
17 7 -13 171 172 0
17 7 -13 171 -172 0
17 7 -13 -171 173 0
17 7 -13 -171 -173 0
16 19 9 174 175 0
16 19 9 174 -175 0
16 19 9 -174 176 0
16 19 9 -174 -176 0
3 11 15 177 178 0
3 11 15 177 -178 0
3 11 15 -177 179 0
3 11 15 -177 -179 0
-20 -3 -19 180 181 0
-20 -3 -19 180 -181 0
-20 -3 -19 -180 182 0
-20 -3 -19 -180 -182 0
-18 17 14 183 184 0
-18 17 14 183 -184 0
-18 17 14 -183 185 0
-18 17 14 -183 -185 0
11 3 -14 186 187 0
11 3 -14 186 -187 0
11 3 -14 -186 188 0
11 3 -14 -186 -188 0
19 20 16 189 190 0
19 20 16 189 -190 0
19 20 16 -189 191 0
19 20 16 -189 -191 0
14 -8 -15 192 193 0
14 -8 -15 192 -193 0
14 -8 -15 -192 194 0
14 -8 -15 -192 -194 0
-15 -18 -19 195 196 0
-15 -18 -19 195 -196 0
-15 -18 -19 -195 197 0
-15 -18 -19 -195 -197 0
-7 8 -14 198 199 0
-7 8 -14 198 -199 0
-7 8 -14 -198 200 0
-7 8 -14 -198 -200 0
-7 18 2 201 202 0
-7 18 2 201 -202 0
-7 18 2 -201 203 0
-7 18 2 -201 -203 0
-17 1 -6 204 205 0
-17 1 -6 204 -205 0
-17 1 -6 -204 206 0
-17 1 -6 -204 -206 0
-18 1 -19 207 208 0
-18 1 -19 207 -208 0
-18 1 -19 -207 209 0
-18 1 -19 -207 -209 0
9 -3 14 210 211 0
9 -3 14 210 -211 0
9 -3 14 -210 212 0
9 -3 14 -210 -212 0
-6 3 -12 213 214 0
-6 3 -12 213 -214 0
-6 3 -12 -213 215 0
-6 3 -12 -213 -215 0
19 8 -17 216 217 0
19 8 -17 216 -217 0
19 8 -17 -216 218 0
19 8 -17 -216 -218 0
-7 -5 18 219 220 0
-7 -5 18 219 -220 0
-7 -5 18 -219 221 0
-7 -5 18 -219 -221 0
4 15 -6 222 223 0
4 15 -6 222 -223 0
4 15 -6 -222 224 0
4 15 -6 -222 -224 0
-19 16 -17 225 226 0
-19 16 -17 225 -226 0
-19 16 -17 -225 227 0
-19 16 -17 -225 -227 0
15 -9 6 228 229 0
15 -9 6 228 -229 0
15 -9 6 -228 230 0
15 -9 6 -228 -230 0
7 -4 -1 231 232 0
7 -4 -1 231 -232 0
7 -4 -1 -231 233 0
7 -4 -1 -231 -233 0
-13 16 6 234 235 0
-13 16 6 234 -235 0
-13 16 6 -234 236 0
-13 16 6 -234 -236 0
-7 12 13 237 238 0
-7 12 13 237 -238 0
-7 12 13 -237 239 0
-7 12 13 -237 -239 0
17 -2 -11 240 241 0
17 -2 -11 240 -241 0
17 -2 -11 -240 242 0
17 -2 -11 -240 -242 0
-4 2 -7 243 244 0
-4 2 -7 243 -244 0
-4 2 -7 -243 245 0
-4 2 -7 -243 -245 0
-4 7 -19 246 247 0
-4 7 -19 246 -247 0
-4 7 -19 -246 248 0
-4 7 -19 -246 -248 0
10 1 18 249 250 0
10 1 18 249 -250 0
10 1 18 -249 251 0
10 1 18 -249 -251 0
8 18 1 252 253 0
8 18 1 252 -253 0
8 18 1 -252 254 0
8 18 1 -252 -254 0
-4 9 -18 255 256 0
-4 9 -18 255 -256 0
-4 9 -18 -255 257 0
-4 9 -18 -255 -257 0
-17 -7 -4 258 259 0
-17 -7 -4 258 -259 0
-17 -7 -4 -258 260 0
-17 -7 -4 -258 -260 0
-20 19 15 261 262 0
-20 19 15 261 -262 0
-20 19 15 -261 263 0
-20 19 15 -261 -263 0
4 5 3 264 265 0
4 5 3 264 -265 0
4 5 3 -264 266 0
4 5 3 -264 -266 0
-13 14 -7 267 268 0
-13 14 -7 267 -268 0
-13 14 -7 -267 269 0
-13 14 -7 -267 -269 0
-1 -5 3 270 271 0
-1 -5 3 270 -271 0
-1 -5 3 -270 272 0
-1 -5 3 -270 -272 0
-16 -15 14 273 274 0
-16 -15 14 273 -274 0
-16 -15 14 -273 275 0
-16 -15 14 -273 -275 0
14 10 5 276 277 0
14 10 5 276 -277 0
14 10 5 -276 278 0
14 10 5 -276 -278 0
-14 -7 -13 279 280 0
-14 -7 -13 279 -280 0
-14 -7 -13 -279 281 0
-14 -7 -13 -279 -281 0
-6 -5 -12 282 283 0
-6 -5 -12 282 -283 0
-6 -5 -12 -282 284 0
-6 -5 -12 -282 -284 0
7 -19 -17 285 286 0
7 -19 -17 285 -286 0
7 -19 -17 -285 287 0
7 -19 -17 -285 -287 0
-17 12 -8 288 289 0
-17 12 -8 288 -289 0
-17 12 -8 -288 290 0
-17 12 -8 -288 -290 0
16 -3 -8 291 292 0
16 -3 -8 291 -292 0
16 -3 -8 -291 293 0
16 -3 -8 -291 -293 0
294 295 297 301 309 0
294 295 297 301 -309 0
294 295 297 -301 310 0
294 295 297 -301 -310 0
294 295 -297 302 311 0
294 295 -297 302 -311 0
294 295 -297 -302 312 0
294 295 -297 -302 -312 0
294 -295 298 303 313 0
294 -295 298 303 -313 0
294 -295 298 -303 314 0
294 -295 298 -303 -314 0
294 -295 -298 304 315 0
294 -295 -298 304 -315 0
294 -295 -298 -304 316 0
294 -295 -298 -304 -316 0
-294 296 299 305 317 0
-294 296 299 305 -317 0
-294 296 299 -305 318 0
-294 296 299 -305 -318 0
-294 296 -299 306 319 0
-294 296 -299 306 -319 0
-294 296 -299 -306 320 0
-294 296 -299 -306 -320 0
-294 -296 300 307 321 0
-294 -296 300 307 -321 0
-294 -296 300 -307 322 0
-294 -296 300 -307 -322 0
-294 -296 -300 308 323 0
-294 -296 -300 308 -323 0
-294 -296 -300 -308 324 0
-294 -296 -300 -308 -324 0
325 326 328 332 340 0
325 326 328 332 -340 0
325 326 328 -332 341 0
325 326 328 -332 -341 0
325 326 -328 333 342 0
325 326 -328 333 -342 0
325 326 -328 -333 343 0
325 326 -328 -333 -343 0
325 -326 329 334 344 0
325 -326 329 334 -344 0
325 -326 329 -334 345 0
325 -326 329 -334 -345 0
325 -326 -329 335 346 0
325 -326 -329 335 -346 0
325 -326 -329 -335 347 0
325 -326 -329 -335 -347 0
-325 327 330 336 348 0
-325 327 330 336 -348 0
-325 327 330 -336 349 0
-325 327 330 -336 -349 0
-325 327 -330 337 350 0
-325 327 -330 337 -350 0
-325 327 -330 -337 351 0
-325 327 -330 -337 -351 0
-325 -327 331 338 352 0
-325 -327 331 338 -352 0
-325 -327 331 -338 353 0
-325 -327 331 -338 -353 0
-325 -327 -331 339 354 0
-325 -327 -331 339 -354 0
-325 -327 -331 -339 355 0
-325 -327 -331 -339 -355 0
356 357 359 363 371 0
356 357 359 363 -371 0
356 357 359 -363 372 0
356 357 359 -363 -372 0
356 357 -359 364 373 0
356 357 -359 364 -373 0
356 357 -359 -364 374 0
356 357 -359 -364 -374 0
356 -357 360 365 375 0
356 -357 360 365 -375 0
356 -357 360 -365 376 0
356 -357 360 -365 -376 0
356 -357 -360 366 377 0
356 -357 -360 366 -377 0
356 -357 -360 -366 378 0
356 -357 -360 -366 -378 0
-356 358 361 367 379 0
-356 358 361 367 -379 0
-356 358 361 -367 380 0
-356 358 361 -367 -380 0
-356 358 -361 368 381 0
-356 358 -361 368 -381 0
-356 358 -361 -368 382 0
-356 358 -361 -368 -382 0
-356 -358 362 369 383 0
-356 -358 362 369 -383 0
-356 -358 362 -369 384 0
-356 -358 362 -369 -384 0
-356 -358 -362 370 385 0
-356 -358 -362 370 -385 0
-356 -358 -362 -370 386 0
-356 -358 -362 -370 -386 0

